NAME 
OBJSENSE MAX
ROWS
 N  OBJ
 L  packing[0]
 L  packing[1]
 L  packing[2]
 L  packing[3]
 L  packing[4]
 L  packing[5]
 L  packing[6]
 L  packing[7]
 L  packing[8]
 L  packing[9]
 L  packing[10]
 L  packing[11]
 L  packing[12]
 L  packing[13]
 L  packing[14]
 L  packing[15]
 L  packing[16]
 L  packing[17]
 L  packing[18]
 L  packing[19]
 L  packing[20]
 L  packing[21]
 L  packing[22]
 L  packing[23]
 L  packing[24]
 L  packing[25]
 L  packing[26]
 L  packing[27]
 L  packing[28]
 L  packing[29]
 L  packing[30]
 L  packing[31]
 L  packing[32]
 L  packing[33]
 L  packing[34]
 L  packing[35]
 L  packing[36]
 L  packing[37]
 L  packing[38]
 L  packing[39]
 L  packing[40]
 L  packing[41]
 L  packing[42]
 L  packing[43]
 L  packing[44]
 L  packing[45]
 L  packing[46]
 L  packing[47]
 L  packing[48]
 L  packing[49]
 L  R56     
COLUMNS
    MARKER    'MARKER'                 'INTORG'
    x[1]      OBJ       31
    x[1]      packing[0]  87
    x[1]      packing[1]  164
    x[1]      packing[2]  180
    x[1]      packing[3]  50
    x[1]      packing[4]  102
    x[1]      packing[5]  176
    x[1]      packing[6]  85
    x[1]      packing[8]  38
    x[1]      packing[9]  62
    x[1]      packing[10]  55
    x[1]      packing[11]  2
    x[1]      packing[12]  99
    x[1]      packing[13]  86
    x[1]      packing[16]  185
    x[1]      packing[17]  23
    x[1]      packing[18]  133
    x[1]      packing[20]  189
    x[1]      packing[22]  100
    x[1]      packing[24]  68
    x[1]      packing[25]  149
    x[1]      packing[26]  92
    x[1]      packing[27]  172
    x[1]      packing[28]  71
    x[1]      packing[29]  113
    x[1]      packing[30]  20
    x[1]      packing[32]  170
    x[1]      packing[33]  98
    x[1]      packing[34]  19
    x[1]      packing[35]  83
    x[1]      packing[36]  47
    x[1]      packing[38]  198
    x[1]      packing[40]  54
    x[1]      packing[41]  103
    x[1]      packing[42]  88
    x[1]      packing[43]  173
    x[1]      packing[44]  91
    x[1]      packing[45]  110
    x[1]      packing[46]  91
    x[1]      packing[48]  187
    x[1]      packing[49]  59
    x[2]      OBJ       91
    x[2]      packing[0]  85
    x[2]      packing[1]  37
    x[2]      packing[3]  161
    x[2]      packing[4]  34
    x[2]      packing[6]  154
    x[2]      packing[8]  128
    x[2]      packing[9]  103
    x[2]      packing[10]  88
    x[2]      packing[11]  166
    x[2]      packing[12]  197
    x[2]      packing[13]  93
    x[2]      packing[14]  184
    x[2]      packing[15]  101
    x[2]      packing[16]  30
    x[2]      packing[17]  84
    x[2]      packing[19]  51
    x[2]      packing[20]  167
    x[2]      packing[22]  28
    x[2]      packing[24]  143
    x[2]      packing[26]  138
    x[2]      packing[27]  125
    x[2]      packing[28]  182
    x[2]      packing[29]  99
    x[2]      packing[30]  92
    x[2]      packing[32]  98
    x[2]      packing[34]  5
    x[2]      packing[35]  14
    x[2]      packing[36]  143
    x[2]      packing[37]  195
    x[2]      packing[38]  146
    x[2]      packing[40]  195
    x[2]      packing[42]  7
    x[2]      packing[44]  38
    x[2]      packing[45]  184
    x[2]      packing[47]  188
    x[2]      packing[48]  66
    x[3]      OBJ       128
    x[3]      packing[0]  84
    x[3]      packing[1]  152
    x[3]      packing[2]  195
    x[3]      packing[3]  165
    x[3]      packing[4]  126
    x[3]      packing[5]  82
    x[3]      packing[6]  16
    x[3]      packing[8]  147
    x[3]      packing[9]  1
    x[3]      packing[10]  153
    x[3]      packing[11]  84
    x[3]      packing[12]  8
    x[3]      packing[13]  85
    x[3]      packing[15]  152
    x[3]      packing[16]  135
    x[3]      packing[17]  187
    x[3]      packing[18]  143
    x[3]      packing[20]  102
    x[3]      packing[22]  104
    x[3]      packing[24]  12
    x[3]      packing[25]  143
    x[3]      packing[26]  92
    x[3]      packing[29]  127
    x[3]      packing[30]  154
    x[3]      packing[31]  11
    x[3]      packing[32]  7
    x[3]      packing[34]  111
    x[3]      packing[37]  57
    x[3]      packing[39]  57
    x[3]      packing[40]  189
    x[3]      packing[41]  123
    x[3]      packing[42]  161
    x[3]      packing[44]  123
    x[3]      packing[45]  104
    x[3]      packing[46]  32
    x[3]      packing[47]  51
    x[3]      packing[48]  154
    x[3]      packing[49]  180
    x[4]      OBJ       94
    x[4]      packing[0]  87
    x[4]      packing[1]  72
    x[4]      packing[2]  130
    x[4]      packing[4]  154
    x[4]      packing[5]  27
    x[4]      packing[8]  7
    x[4]      packing[9]  94
    x[4]      packing[10]  174
    x[4]      packing[11]  116
    x[4]      packing[13]  52
    x[4]      packing[15]  177
    x[4]      packing[18]  42
    x[4]      packing[20]  111
    x[4]      packing[21]  43
    x[4]      packing[22]  67
    x[4]      packing[23]  97
    x[4]      packing[25]  150
    x[4]      packing[26]  137
    x[4]      packing[27]  176
    x[4]      packing[28]  112
    x[4]      packing[29]  8
    x[4]      packing[30]  170
    x[4]      packing[31]  194
    x[4]      packing[32]  94
    x[4]      packing[33]  5
    x[4]      packing[36]  24
    x[4]      packing[37]  155
    x[4]      packing[39]  20
    x[4]      packing[41]  87
    x[4]      packing[42]  160
    x[4]      packing[45]  29
    x[4]      packing[47]  9
    x[4]      packing[48]  125
    x[4]      packing[49]  85
    x[5]      OBJ       141
    x[5]      packing[0]  87
    x[5]      packing[1]  4
    x[5]      packing[2]  170
    x[5]      packing[3]  144
    x[5]      packing[4]  86
    x[5]      packing[5]  178
    x[5]      packing[7]  117
    x[5]      packing[8]  188
    x[5]      packing[11]  185
    x[5]      packing[12]  191
    x[5]      packing[13]  10
    x[5]      packing[14]  60
    x[5]      packing[15]  113
    x[5]      packing[16]  35
    x[5]      packing[17]  103
    x[5]      packing[19]  58
    x[5]      packing[22]  107
    x[5]      packing[23]  22
    x[5]      packing[25]  110
    x[5]      packing[26]  164
    x[5]      packing[27]  22
    x[5]      packing[28]  44
    x[5]      packing[30]  176
    x[5]      packing[31]  32
    x[5]      packing[32]  132
    x[5]      packing[33]  143
    x[5]      packing[34]  196
    x[5]      packing[36]  38
    x[5]      packing[37]  43
    x[5]      packing[38]  134
    x[5]      packing[40]  157
    x[5]      packing[41]  161
    x[5]      packing[42]  9
    x[5]      packing[43]  21
    x[5]      packing[44]  96
    x[5]      packing[46]  188
    x[5]      packing[47]  161
    x[5]      packing[48]  11
    x[5]      packing[49]  35
    x[6]      OBJ       5
    x[6]      packing[0]  106
    x[6]      packing[1]  166
    x[6]      packing[2]  120
    x[6]      packing[3]  66
    x[6]      packing[4]  191
    x[6]      packing[5]  96
    x[6]      packing[6]  111
    x[6]      packing[9]  77
    x[6]      packing[10]  112
    x[6]      packing[12]  138
    x[6]      packing[13]  148
    x[6]      packing[14]  121
    x[6]      packing[15]  170
    x[6]      packing[16]  113
    x[6]      packing[19]  130
    x[6]      packing[20]  11
    x[6]      packing[21]  72
    x[6]      packing[22]  90
    x[6]      packing[23]  22
    x[6]      packing[25]  72
    x[6]      packing[27]  90
    x[6]      packing[28]  165
    x[6]      packing[30]  181
    x[6]      packing[32]  90
    x[6]      packing[33]  55
    x[6]      packing[34]  10
    x[6]      packing[35]  41
    x[6]      packing[37]  196
    x[6]      packing[38]  102
    x[6]      packing[39]  107
    x[6]      packing[40]  110
    x[6]      packing[41]  150
    x[6]      packing[42]  121
    x[6]      packing[43]  163
    x[6]      packing[44]  181
    x[6]      packing[45]  22
    x[6]      packing[46]  89
    x[6]      packing[47]  101
    x[6]      packing[49]  183
    x[7]      OBJ       66
    x[7]      packing[0]  166
    x[7]      packing[2]  105
    x[7]      packing[3]  108
    x[7]      packing[4]  95
    x[7]      packing[5]  160
    x[7]      packing[6]  184
    x[7]      packing[7]  149
    x[7]      packing[9]  168
    x[7]      packing[10]  198
    x[7]      packing[12]  84
    x[7]      packing[13]  81
    x[7]      packing[16]  78
    x[7]      packing[19]  70
    x[7]      packing[20]  102
    x[7]      packing[21]  148
    x[7]      packing[22]  37
    x[7]      packing[23]  66
    x[7]      packing[24]  120
    x[7]      packing[25]  103
    x[7]      packing[26]  88
    x[7]      packing[27]  164
    x[7]      packing[29]  44
    x[7]      packing[30]  25
    x[7]      packing[31]  108
    x[7]      packing[33]  191
    x[7]      packing[35]  148
    x[7]      packing[36]  116
    x[7]      packing[37]  33
    x[7]      packing[38]  113
    x[7]      packing[39]  50
    x[7]      packing[41]  192
    x[7]      packing[43]  114
    x[7]      packing[44]  166
    x[7]      packing[46]  103
    x[7]      packing[48]  82
    x[7]      packing[49]  91
    x[8]      OBJ       100
    x[8]      packing[0]  11
    x[8]      packing[1]  28
    x[8]      packing[2]  117
    x[8]      packing[3]  127
    x[8]      packing[5]  83
    x[8]      packing[7]  56
    x[8]      packing[9]  187
    x[8]      packing[10]  14
    x[8]      packing[12]  67
    x[8]      packing[13]  5
    x[8]      packing[15]  157
    x[8]      packing[17]  135
    x[8]      packing[18]  77
    x[8]      packing[19]  16
    x[8]      packing[21]  3
    x[8]      packing[22]  83
    x[8]      packing[24]  168
    x[8]      packing[25]  87
    x[8]      packing[26]  9
    x[8]      packing[28]  167
    x[8]      packing[29]  132
    x[8]      packing[30]  57
    x[8]      packing[31]  49
    x[8]      packing[32]  153
    x[8]      packing[33]  133
    x[8]      packing[34]  124
    x[8]      packing[35]  118
    x[8]      packing[36]  137
    x[8]      packing[37]  126
    x[8]      packing[38]  149
    x[8]      packing[41]  77
    x[8]      packing[42]  30
    x[8]      packing[44]  118
    x[8]      packing[45]  56
    x[8]      packing[47]  191
    x[8]      packing[49]  113
    x[8]      R56       1
    x[9]      OBJ       80
    x[9]      packing[0]  27
    x[9]      packing[1]  33
    x[9]      packing[2]  176
    x[9]      packing[3]  40
    x[9]      packing[4]  39
    x[9]      packing[5]  133
    x[9]      packing[6]  24
    x[9]      packing[7]  160
    x[9]      packing[10]  130
    x[9]      packing[12]  190
    x[9]      packing[13]  4
    x[9]      packing[14]  156
    x[9]      packing[15]  60
    x[9]      packing[16]  19
    x[9]      packing[17]  7
    x[9]      packing[18]  36
    x[9]      packing[20]  21
    x[9]      packing[21]  8
    x[9]      packing[22]  154
    x[9]      packing[24]  11
    x[9]      packing[26]  81
    x[9]      packing[27]  116
    x[9]      packing[28]  156
    x[9]      packing[29]  164
    x[9]      packing[30]  65
    x[9]      packing[32]  170
    x[9]      packing[33]  4
    x[9]      packing[34]  189
    x[9]      packing[36]  118
    x[9]      packing[38]  51
    x[9]      packing[39]  166
    x[9]      packing[40]  60
    x[9]      packing[41]  166
    x[9]      packing[42]  121
    x[9]      packing[44]  48
    x[9]      packing[45]  146
    x[9]      packing[46]  61
    x[9]      packing[47]  127
    x[9]      packing[48]  170
    x[9]      packing[49]  158
    x[10]     OBJ       195
    x[10]     packing[1]  191
    x[10]     packing[2]  95
    x[10]     packing[3]  15
    x[10]     packing[5]  167
    x[10]     packing[6]  111
    x[10]     packing[7]  75
    x[10]     packing[8]  79
    x[10]     packing[9]  68
    x[10]     packing[11]  147
    x[10]     packing[12]  198
    x[10]     packing[13]  62
    x[10]     packing[14]  34
    x[10]     packing[18]  70
    x[10]     packing[19]  83
    x[10]     packing[20]  176
    x[10]     packing[22]  13
    x[10]     packing[23]  11
    x[10]     packing[24]  160
    x[10]     packing[25]  170
    x[10]     packing[26]  57
    x[10]     packing[27]  160
    x[10]     packing[29]  154
    x[10]     packing[30]  40
    x[10]     packing[31]  199
    x[10]     packing[33]  115
    x[10]     packing[34]  97
    x[10]     packing[35]  137
    x[10]     packing[36]  23
    x[10]     packing[37]  65
    x[10]     packing[38]  65
    x[10]     packing[39]  184
    x[10]     packing[40]  170
    x[10]     packing[41]  43
    x[10]     packing[42]  15
    x[10]     packing[43]  87
    x[10]     packing[44]  76
    x[10]     packing[48]  68
    x[10]     packing[49]  16
    x[10]     R56       1
    x[11]     OBJ       86
    x[11]     packing[0]  173
    x[11]     packing[3]  16
    x[11]     packing[4]  9
    x[11]     packing[5]  67
    x[11]     packing[6]  96
    x[11]     packing[7]  87
    x[11]     packing[8]  198
    x[11]     packing[9]  191
    x[11]     packing[11]  145
    x[11]     packing[12]  140
    x[11]     packing[13]  195
    x[11]     packing[15]  16
    x[11]     packing[19]  155
    x[11]     packing[21]  197
    x[11]     packing[26]  196
    x[11]     packing[27]  68
    x[11]     packing[28]  173
    x[11]     packing[29]  20
    x[11]     packing[31]  157
    x[11]     packing[32]  75
    x[11]     packing[33]  177
    x[11]     packing[34]  57
    x[11]     packing[35]  84
    x[11]     packing[37]  53
    x[11]     packing[39]  79
    x[11]     packing[40]  104
    x[11]     packing[41]  141
    x[11]     packing[42]  132
    x[11]     packing[43]  146
    x[11]     packing[44]  127
    x[11]     packing[45]  159
    x[11]     packing[46]  26
    x[11]     packing[48]  134
    x[11]     packing[49]  21
    x[12]     OBJ       168
    x[12]     packing[0]  146
    x[12]     packing[1]  40
    x[12]     packing[2]  107
    x[12]     packing[3]  118
    x[12]     packing[4]  80
    x[12]     packing[6]  11
    x[12]     packing[7]  104
    x[12]     packing[8]  158
    x[12]     packing[9]  26
    x[12]     packing[10]  74
    x[12]     packing[12]  191
    x[12]     packing[13]  121
    x[12]     packing[14]  175
    x[12]     packing[15]  15
    x[12]     packing[16]  17
    x[12]     packing[17]  53
    x[12]     packing[18]  29
    x[12]     packing[19]  28
    x[12]     packing[20]  70
    x[12]     packing[22]  71
    x[12]     packing[23]  128
    x[12]     packing[24]  156
    x[12]     packing[27]  165
    x[12]     packing[28]  40
    x[12]     packing[29]  25
    x[12]     packing[30]  92
    x[12]     packing[31]  38
    x[12]     packing[32]  134
    x[12]     packing[34]  5
    x[12]     packing[35]  42
    x[12]     packing[38]  42
    x[12]     packing[40]  67
    x[12]     packing[41]  58
    x[12]     packing[42]  72
    x[12]     packing[43]  52
    x[12]     packing[44]  77
    x[12]     packing[45]  44
    x[12]     packing[46]  162
    x[12]     packing[47]  43
    x[12]     packing[48]  7
    x[12]     packing[49]  169
    x[12]     R56       1
    x[13]     OBJ       30
    x[13]     packing[0]  24
    x[13]     packing[1]  158
    x[13]     packing[2]  156
    x[13]     packing[4]  189
    x[13]     packing[5]  85
    x[13]     packing[7]  182
    x[13]     packing[8]  184
    x[13]     packing[10]  171
    x[13]     packing[11]  133
    x[13]     packing[12]  93
    x[13]     packing[13]  125
    x[13]     packing[14]  20
    x[13]     packing[15]  120
    x[13]     packing[18]  43
    x[13]     packing[19]  7
    x[13]     packing[20]  70
    x[13]     packing[21]  13
    x[13]     packing[22]  10
    x[13]     packing[23]  166
    x[13]     packing[25]  102
    x[13]     packing[26]  82
    x[13]     packing[27]  100
    x[13]     packing[29]  152
    x[13]     packing[30]  184
    x[13]     packing[31]  142
    x[13]     packing[32]  144
    x[13]     packing[33]  91
    x[13]     packing[34]  98
    x[13]     packing[35]  181
    x[13]     packing[36]  58
    x[13]     packing[37]  138
    x[13]     packing[38]  62
    x[13]     packing[40]  6
    x[13]     packing[41]  51
    x[13]     packing[42]  20
    x[13]     packing[43]  180
    x[13]     packing[44]  81
    x[13]     packing[45]  73
    x[13]     packing[46]  38
    x[13]     packing[47]  170
    x[13]     packing[48]  72
    x[13]     packing[49]  76
    x[14]     OBJ       79
    x[14]     packing[0]  30
    x[14]     packing[1]  12
    x[14]     packing[2]  155
    x[14]     packing[3]  73
    x[14]     packing[5]  161
    x[14]     packing[6]  115
    x[14]     packing[7]  127
    x[14]     packing[8]  13
    x[14]     packing[10]  26
    x[14]     packing[13]  96
    x[14]     packing[14]  187
    x[14]     packing[15]  81
    x[14]     packing[16]  139
    x[14]     packing[17]  126
    x[14]     packing[19]  39
    x[14]     packing[20]  157
    x[14]     packing[21]  150
    x[14]     packing[22]  170
    x[14]     packing[23]  23
    x[14]     packing[24]  174
    x[14]     packing[25]  70
    x[14]     packing[26]  178
    x[14]     packing[27]  5
    x[14]     packing[28]  71
    x[14]     packing[29]  52
    x[14]     packing[30]  164
    x[14]     packing[32]  32
    x[14]     packing[33]  175
    x[14]     packing[34]  166
    x[14]     packing[36]  182
    x[14]     packing[38]  106
    x[14]     packing[39]  23
    x[14]     packing[40]  155
    x[14]     packing[41]  59
    x[14]     packing[43]  122
    x[14]     packing[44]  102
    x[14]     packing[46]  134
    x[14]     packing[47]  167
    x[14]     packing[48]  2
    x[15]     OBJ       128
    x[15]     packing[0]  139
    x[15]     packing[1]  13
    x[15]     packing[4]  110
    x[15]     packing[5]  56
    x[15]     packing[6]  72
    x[15]     packing[7]  105
    x[15]     packing[8]  187
    x[15]     packing[9]  59
    x[15]     packing[10]  182
    x[15]     packing[11]  186
    x[15]     packing[12]  166
    x[15]     packing[13]  32
    x[15]     packing[14]  152
    x[15]     packing[15]  125
    x[15]     packing[16]  33
    x[15]     packing[17]  110
    x[15]     packing[18]  133
    x[15]     packing[19]  199
    x[15]     packing[20]  128
    x[15]     packing[21]  183
    x[15]     packing[22]  142
    x[15]     packing[23]  16
    x[15]     packing[24]  88
    x[15]     packing[26]  168
    x[15]     packing[27]  141
    x[15]     packing[29]  70
    x[15]     packing[30]  118
    x[15]     packing[31]  183
    x[15]     packing[32]  61
    x[15]     packing[34]  33
    x[15]     packing[35]  67
    x[15]     packing[36]  71
    x[15]     packing[37]  11
    x[15]     packing[38]  73
    x[15]     packing[39]  36
    x[15]     packing[41]  142
    x[15]     packing[42]  171
    x[15]     packing[43]  16
    x[15]     packing[44]  181
    x[15]     packing[45]  134
    x[15]     packing[46]  84
    x[15]     packing[47]  39
    x[15]     packing[48]  129
    x[15]     packing[49]  38
    x[16]     OBJ       177
    x[16]     packing[1]  175
    x[16]     packing[2]  180
    x[16]     packing[5]  91
    x[16]     packing[6]  39
    x[16]     packing[7]  7
    x[16]     packing[8]  198
    x[16]     packing[10]  88
    x[16]     packing[11]  176
    x[16]     packing[13]  199
    x[16]     packing[14]  146
    x[16]     packing[15]  5
    x[16]     packing[16]  65
    x[16]     packing[17]  18
    x[16]     packing[18]  33
    x[16]     packing[19]  158
    x[16]     packing[21]  131
    x[16]     packing[22]  90
    x[16]     packing[25]  66
    x[16]     packing[27]  110
    x[16]     packing[29]  94
    x[16]     packing[30]  84
    x[16]     packing[31]  51
    x[16]     packing[32]  191
    x[16]     packing[33]  20
    x[16]     packing[35]  113
    x[16]     packing[36]  24
    x[16]     packing[37]  87
    x[16]     packing[38]  65
    x[16]     packing[39]  68
    x[16]     packing[40]  70
    x[16]     packing[41]  77
    x[16]     packing[42]  110
    x[16]     packing[44]  183
    x[16]     packing[47]  93
    x[16]     packing[48]  81
    x[17]     OBJ       186
    x[17]     packing[1]  16
    x[17]     packing[2]  20
    x[17]     packing[3]  43
    x[17]     packing[5]  196
    x[17]     packing[6]  171
    x[17]     packing[7]  23
    x[17]     packing[8]  137
    x[17]     packing[10]  138
    x[17]     packing[11]  53
    x[17]     packing[13]  162
    x[17]     packing[14]  61
    x[17]     packing[15]  73
    x[17]     packing[16]  181
    x[17]     packing[17]  97
    x[17]     packing[18]  169
    x[17]     packing[20]  176
    x[17]     packing[21]  53
    x[17]     packing[22]  186
    x[17]     packing[24]  121
    x[17]     packing[25]  19
    x[17]     packing[27]  1
    x[17]     packing[28]  72
    x[17]     packing[29]  101
    x[17]     packing[30]  152
    x[17]     packing[31]  145
    x[17]     packing[32]  29
    x[17]     packing[33]  40
    x[17]     packing[35]  26
    x[17]     packing[36]  149
    x[17]     packing[37]  135
    x[17]     packing[38]  31
    x[17]     packing[42]  64
    x[17]     packing[44]  158
    x[17]     packing[45]  24
    x[17]     packing[46]  166
    x[17]     packing[47]  128
    x[17]     packing[48]  150
    x[17]     packing[49]  37
    x[17]     R56       1
    x[18]     OBJ       108
    x[18]     packing[0]  9
    x[18]     packing[1]  92
    x[18]     packing[2]  144
    x[18]     packing[3]  39
    x[18]     packing[4]  36
    x[18]     packing[7]  117
    x[18]     packing[8]  3
    x[18]     packing[9]  133
    x[18]     packing[10]  67
    x[18]     packing[11]  67
    x[18]     packing[12]  191
    x[18]     packing[13]  74
    x[18]     packing[14]  47
    x[18]     packing[15]  145
    x[18]     packing[16]  124
    x[18]     packing[17]  51
    x[18]     packing[18]  174
    x[18]     packing[19]  110
    x[18]     packing[20]  176
    x[18]     packing[21]  10
    x[18]     packing[22]  199
    x[18]     packing[25]  127
    x[18]     packing[26]  97
    x[18]     packing[27]  191
    x[18]     packing[28]  73
    x[18]     packing[31]  79
    x[18]     packing[32]  112
    x[18]     packing[33]  90
    x[18]     packing[34]  138
    x[18]     packing[35]  141
    x[18]     packing[36]  96
    x[18]     packing[38]  134
    x[18]     packing[39]  84
    x[18]     packing[40]  16
    x[18]     packing[41]  40
    x[18]     packing[42]  54
    x[18]     packing[43]  141
    x[18]     packing[44]  152
    x[18]     packing[45]  119
    x[18]     packing[46]  53
    x[18]     packing[47]  117
    x[18]     packing[48]  2
    x[18]     packing[49]  162
    x[19]     OBJ       129
    x[19]     packing[2]  93
    x[19]     packing[3]  53
    x[19]     packing[4]  58
    x[19]     packing[5]  45
    x[19]     packing[7]  79
    x[19]     packing[8]  100
    x[19]     packing[9]  71
    x[19]     packing[10]  167
    x[19]     packing[12]  72
    x[19]     packing[13]  150
    x[19]     packing[15]  129
    x[19]     packing[16]  130
    x[19]     packing[17]  143
    x[19]     packing[18]  199
    x[19]     packing[19]  129
    x[19]     packing[20]  178
    x[19]     packing[21]  3
    x[19]     packing[23]  138
    x[19]     packing[24]  141
    x[19]     packing[25]  164
    x[19]     packing[26]  138
    x[19]     packing[27]  162
    x[19]     packing[28]  56
    x[19]     packing[29]  23
    x[19]     packing[30]  141
    x[19]     packing[32]  186
    x[19]     packing[33]  93
    x[19]     packing[34]  94
    x[19]     packing[35]  51
    x[19]     packing[36]  146
    x[19]     packing[37]  47
    x[19]     packing[39]  9
    x[19]     packing[40]  40
    x[19]     packing[41]  111
    x[19]     packing[42]  189
    x[19]     packing[43]  184
    x[19]     packing[44]  149
    x[19]     packing[45]  49
    x[19]     packing[48]  165
    x[19]     packing[49]  47
    x[19]     R56       1
    x[20]     OBJ       182
    x[20]     packing[0]  34
    x[20]     packing[2]  113
    x[20]     packing[3]  72
    x[20]     packing[4]  145
    x[20]     packing[6]  151
    x[20]     packing[7]  84
    x[20]     packing[8]  81
    x[20]     packing[9]  15
    x[20]     packing[10]  88
    x[20]     packing[11]  122
    x[20]     packing[12]  66
    x[20]     packing[14]  131
    x[20]     packing[15]  92
    x[20]     packing[16]  177
    x[20]     packing[17]  76
    x[20]     packing[18]  131
    x[20]     packing[19]  98
    x[20]     packing[21]  144
    x[20]     packing[23]  65
    x[20]     packing[25]  145
    x[20]     packing[28]  140
    x[20]     packing[29]  154
    x[20]     packing[30]  112
    x[20]     packing[31]  189
    x[20]     packing[32]  35
    x[20]     packing[33]  25
    x[20]     packing[34]  37
    x[20]     packing[36]  57
    x[20]     packing[37]  105
    x[20]     packing[41]  62
    x[20]     packing[42]  71
    x[20]     packing[44]  86
    x[20]     packing[46]  30
    x[20]     packing[47]  18
    x[20]     packing[49]  47
    MARKER    'MARKER'                 'INTEND'
RHS
    RHS1      packing[0]  648
    RHS1      packing[1]  677
    RHS1      packing[2]  1128
    RHS1      packing[3]  645
    RHS1      packing[4]  727
    RHS1      packing[5]  902
    RHS1      packing[6]  670
    RHS1      packing[7]  736
    RHS1      packing[8]  923
    RHS1      packing[9]  628
    RHS1      packing[10]  963
    RHS1      packing[11]  791
    RHS1      packing[12]  1046
    RHS1      packing[13]  890
    RHS1      packing[14]  737
    RHS1      packing[15]  866
    RHS1      packing[16]  731
    RHS1      packing[17]  607
    RHS1      packing[18]  706
    RHS1      packing[19]  666
    RHS1      packing[20]  917
    RHS1      packing[21]  579
    RHS1      packing[22]  826
    RHS1      packing[23]  377
    RHS1      packing[24]  681
    RHS1      packing[25]  839
    RHS1      packing[26]  859
    RHS1      packing[27]  984
    RHS1      packing[28]  761
    RHS1      packing[29]  766
    RHS1      packing[30]  1014
    RHS1      packing[31]  789
    RHS1      packing[32]  957
    RHS1      packing[33]  728
    RHS1      packing[34]  690
    RHS1      packing[35]  623
    RHS1      packing[36]  715
    RHS1      packing[37]  723
    RHS1      packing[38]  736
    RHS1      packing[39]  442
    RHS1      packing[40]  697
    RHS1      packing[41]  922
    RHS1      packing[42]  798
    RHS1      packing[43]  700
    RHS1      packing[44]  1117
    RHS1      packing[45]  627
    RHS1      packing[46]  629
    RHS1      packing[47]  802
    RHS1      packing[48]  803
    RHS1      packing[49]  759
    RHS1      R56       4
BOUNDS
 BV BND1      x[1]    
 BV BND1      x[2]    
 BV BND1      x[3]    
 BV BND1      x[4]    
 BV BND1      x[5]    
 BV BND1      x[6]    
 BV BND1      x[7]    
 BV BND1      x[8]    
 BV BND1      x[9]    
 BV BND1      x[10]   
 BV BND1      x[11]   
 BV BND1      x[12]   
 BV BND1      x[13]   
 BV BND1      x[14]   
 BV BND1      x[15]   
 BV BND1      x[16]   
 BV BND1      x[17]   
 BV BND1      x[18]   
 BV BND1      x[19]   
 BV BND1      x[20]   
ENDATA
